60

 0   1   2   3   4   5   6   7   8   9   1   2   3   4   5   6   7   8   9  10   2   3   4   5   6   7   8   9  10  11   3   4   5   6   7   8   9  10  11  12   4   5   6   7   8   9  10  11  12  13   5   6   7   8   9  10  11  12  13  14  
 1   0   1   2   3   4   5   6   7   8   2   1   2   3   4   5   6   7   8   9   3   2   3   4   5   6   7   8   9  10   4   3   4   5   6   7   8   9  10  11   5   4   5   6   7   8   9  10  11  12   6   5   6   7   8   9  10  11  12  13  
 2   1   0   1   2   3   4   5   6   7   3   2   1   2   3   4   5   6   7   8   4   3   2   3   4   5   6   7   8   9   5   4   3   4   5   6   7   8   9  10   6   5   4   5   6   7   8   9  10  11   7   6   5   6   7   8   9  10  11  12  
 3   2   1   0   1   2   3   4   5   6   4   3   2   1   2   3   4   5   6   7   5   4   3   2   3   4   5   6   7   8   6   5   4   3   4   5   6   7   8   9   7   6   5   4   5   6   7   8   9  10   8   7   6   5   6   7   8   9  10  11  
 4   3   2   1   0   1   2   3   4   5   5   4   3   2   1   2   3   4   5   6   6   5   4   3   2   3   4   5   6   7   7   6   5   4   3   4   5   6   7   8   8   7   6   5   4   5   6   7   8   9   9   8   7   6   5   6   7   8   9  10  
 5   4   3   2   1   0   1   2   3   4   6   5   4   3   2   1   2   3   4   5   7   6   5   4   3   2   3   4   5   6   8   7   6   5   4   3   4   5   6   7   9   8   7   6   5   4   5   6   7   8  10   9   8   7   6   5   6   7   8   9  
 6   5   4   3   2   1   0   1   2   3   7   6   5   4   3   2   1   2   3   4   8   7   6   5   4   3   2   3   4   5   9   8   7   6   5   4   3   4   5   6  10   9   8   7   6   5   4   5   6   7  11  10   9   8   7   6   5   6   7   8  
 7   6   5   4   3   2   1   0   1   2   8   7   6   5   4   3   2   1   2   3   9   8   7   6   5   4   3   2   3   4  10   9   8   7   6   5   4   3   4   5  11  10   9   8   7   6   5   4   5   6  12  11  10   9   8   7   6   5   6   7  
 8   7   6   5   4   3   2   1   0   1   9   8   7   6   5   4   3   2   1   2  10   9   8   7   6   5   4   3   2   3  11  10   9   8   7   6   5   4   3   4  12  11  10   9   8   7   6   5   4   5  13  12  11  10   9   8   7   6   5   6  
 9   8   7   6   5   4   3   2   1   0  10   9   8   7   6   5   4   3   2   1  11  10   9   8   7   6   5   4   3   2  12  11  10   9   8   7   6   5   4   3  13  12  11  10   9   8   7   6   5   4  14  13  12  11  10   9   8   7   6   5  
 1   2   3   4   5   6   7   8   9  10   0   1   2   3   4   5   6   7   8   9   1   2   3   4   5   6   7   8   9  10   2   3   4   5   6   7   8   9  10  11   3   4   5   6   7   8   9  10  11  12   4   5   6   7   8   9  10  11  12  13  
 2   1   2   3   4   5   6   7   8   9   1   0   1   2   3   4   5   6   7   8   2   1   2   3   4   5   6   7   8   9   3   2   3   4   5   6   7   8   9  10   4   3   4   5   6   7   8   9  10  11   5   4   5   6   7   8   9  10  11  12  
 3   2   1   2   3   4   5   6   7   8   2   1   0   1   2   3   4   5   6   7   3   2   1   2   3   4   5   6   7   8   4   3   2   3   4   5   6   7   8   9   5   4   3   4   5   6   7   8   9  10   6   5   4   5   6   7   8   9  10  11  
 4   3   2   1   2   3   4   5   6   7   3   2   1   0   1   2   3   4   5   6   4   3   2   1   2   3   4   5   6   7   5   4   3   2   3   4   5   6   7   8   6   5   4   3   4   5   6   7   8   9   7   6   5   4   5   6   7   8   9  10  
 5   4   3   2   1   2   3   4   5   6   4   3   2   1   0   1   2   3   4   5   5   4   3   2   1   2   3   4   5   6   6   5   4   3   2   3   4   5   6   7   7   6   5   4   3   4   5   6   7   8   8   7   6   5   4   5   6   7   8   9  
 6   5   4   3   2   1   2   3   4   5   5   4   3   2   1   0   1   2   3   4   6   5   4   3   2   1   2   3   4   5   7   6   5   4   3   2   3   4   5   6   8   7   6   5   4   3   4   5   6   7   9   8   7   6   5   4   5   6   7   8  
 7   6   5   4   3   2   1   2   3   4   6   5   4   3   2   1   0   1   2   3   7   6   5   4   3   2   1   2   3   4   8   7   6   5   4   3   2   3   4   5   9   8   7   6   5   4   3   4   5   6  10   9   8   7   6   5   4   5   6   7  
 8   7   6   5   4   3   2   1   2   3   7   6   5   4   3   2   1   0   1   2   8   7   6   5   4   3   2   1   2   3   9   8   7   6   5   4   3   2   3   4  10   9   8   7   6   5   4   3   4   5  11  10   9   8   7   6   5   4   5   6  
 9   8   7   6   5   4   3   2   1   2   8   7   6   5   4   3   2   1   0   1   9   8   7   6   5   4   3   2   1   2  10   9   8   7   6   5   4   3   2   3  11  10   9   8   7   6   5   4   3   4  12  11  10   9   8   7   6   5   4   5  
10   9   8   7   6   5   4   3   2   1   9   8   7   6   5   4   3   2   1   0  10   9   8   7   6   5   4   3   2   1  11  10   9   8   7   6   5   4   3   2  12  11  10   9   8   7   6   5   4   3  13  12  11  10   9   8   7   6   5   4  
 2   3   4   5   6   7   8   9  10  11   1   2   3   4   5   6   7   8   9  10   0   1   2   3   4   5   6   7   8   9   1   2   3   4   5   6   7   8   9  10   2   3   4   5   6   7   8   9  10  11   3   4   5   6   7   8   9  10  11  12  
 3   2   3   4   5   6   7   8   9  10   2   1   2   3   4   5   6   7   8   9   1   0   1   2   3   4   5   6   7   8   2   1   2   3   4   5   6   7   8   9   3   2   3   4   5   6   7   8   9  10   4   3   4   5   6   7   8   9  10  11  
 4   3   2   3   4   5   6   7   8   9   3   2   1   2   3   4   5   6   7   8   2   1   0   1   2   3   4   5   6   7   3   2   1   2   3   4   5   6   7   8   4   3   2   3   4   5   6   7   8   9   5   4   3   4   5   6   7   8   9  10  
 5   4   3   2   3   4   5   6   7   8   4   3   2   1   2   3   4   5   6   7   3   2   1   0   1   2   3   4   5   6   4   3   2   1   2   3   4   5   6   7   5   4   3   2   3   4   5   6   7   8   6   5   4   3   4   5   6   7   8   9  
 6   5   4   3   2   3   4   5   6   7   5   4   3   2   1   2   3   4   5   6   4   3   2   1   0   1   2   3   4   5   5   4   3   2   1   2   3   4   5   6   6   5   4   3   2   3   4   5   6   7   7   6   5   4   3   4   5   6   7   8  
 7   6   5   4   3   2   3   4   5   6   6   5   4   3   2   1   2   3   4   5   5   4   3   2   1   0   1   2   3   4   6   5   4   3   2   1   2   3   4   5   7   6   5   4   3   2   3   4   5   6   8   7   6   5   4   3   4   5   6   7  
 8   7   6   5   4   3   2   3   4   5   7   6   5   4   3   2   1   2   3   4   6   5   4   3   2   1   0   1   2   3   7   6   5   4   3   2   1   2   3   4   8   7   6   5   4   3   2   3   4   5   9   8   7   6   5   4   3   4   5   6  
 9   8   7   6   5   4   3   2   3   4   8   7   6   5   4   3   2   1   2   3   7   6   5   4   3   2   1   0   1   2   8   7   6   5   4   3   2   1   2   3   9   8   7   6   5   4   3   2   3   4  10   9   8   7   6   5   4   3   4   5  
10   9   8   7   6   5   4   3   2   3   9   8   7   6   5   4   3   2   1   2   8   7   6   5   4   3   2   1   0   1   9   8   7   6   5   4   3   2   1   2  10   9   8   7   6   5   4   3   2   3  11  10   9   8   7   6   5   4   3   4  
11  10   9   8   7   6   5   4   3   2  10   9   8   7   6   5   4   3   2   1   9   8   7   6   5   4   3   2   1   0  10   9   8   7   6   5   4   3   2   1  11  10   9   8   7   6   5   4   3   2  12  11  10   9   8   7   6   5   4   3  
 3   4   5   6   7   8   9  10  11  12   2   3   4   5   6   7   8   9  10  11   1   2   3   4   5   6   7   8   9  10   0   1   2   3   4   5   6   7   8   9   1   2   3   4   5   6   7   8   9  10   2   3   4   5   6   7   8   9  10  11  
 4   3   4   5   6   7   8   9  10  11   3   2   3   4   5   6   7   8   9  10   2   1   2   3   4   5   6   7   8   9   1   0   1   2   3   4   5   6   7   8   2   1   2   3   4   5   6   7   8   9   3   2   3   4   5   6   7   8   9  10  
 5   4   3   4   5   6   7   8   9  10   4   3   2   3   4   5   6   7   8   9   3   2   1   2   3   4   5   6   7   8   2   1   0   1   2   3   4   5   6   7   3   2   1   2   3   4   5   6   7   8   4   3   2   3   4   5   6   7   8   9  
 6   5   4   3   4   5   6   7   8   9   5   4   3   2   3   4   5   6   7   8   4   3   2   1   2   3   4   5   6   7   3   2   1   0   1   2   3   4   5   6   4   3   2   1   2   3   4   5   6   7   5   4   3   2   3   4   5   6   7   8  
 7   6   5   4   3   4   5   6   7   8   6   5   4   3   2   3   4   5   6   7   5   4   3   2   1   2   3   4   5   6   4   3   2   1   0   1   2   3   4   5   5   4   3   2   1   2   3   4   5   6   6   5   4   3   2   3   4   5   6   7  
 8   7   6   5   4   3   4   5   6   7   7   6   5   4   3   2   3   4   5   6   6   5   4   3   2   1   2   3   4   5   5   4   3   2   1   0   1   2   3   4   6   5   4   3   2   1   2   3   4   5   7   6   5   4   3   2   3   4   5   6  
 9   8   7   6   5   4   3   4   5   6   8   7   6   5   4   3   2   3   4   5   7   6   5   4   3   2   1   2   3   4   6   5   4   3   2   1   0   1   2   3   7   6   5   4   3   2   1   2   3   4   8   7   6   5   4   3   2   3   4   5  
10   9   8   7   6   5   4   3   4   5   9   8   7   6   5   4   3   2   3   4   8   7   6   5   4   3   2   1   2   3   7   6   5   4   3   2   1   0   1   2   8   7   6   5   4   3   2   1   2   3   9   8   7   6   5   4   3   2   3   4  
11  10   9   8   7   6   5   4   3   4  10   9   8   7   6   5   4   3   2   3   9   8   7   6   5   4   3   2   1   2   8   7   6   5   4   3   2   1   0   1   9   8   7   6   5   4   3   2   1   2  10   9   8   7   6   5   4   3   2   3  
12  11  10   9   8   7   6   5   4   3  11  10   9   8   7   6   5   4   3   2  10   9   8   7   6   5   4   3   2   1   9   8   7   6   5   4   3   2   1   0  10   9   8   7   6   5   4   3   2   1  11  10   9   8   7   6   5   4   3   2  
 4   5   6   7   8   9  10  11  12  13   3   4   5   6   7   8   9  10  11  12   2   3   4   5   6   7   8   9  10  11   1   2   3   4   5   6   7   8   9  10   0   1   2   3   4   5   6   7   8   9   1   2   3   4   5   6   7   8   9  10  
 5   4   5   6   7   8   9  10  11  12   4   3   4   5   6   7   8   9  10  11   3   2   3   4   5   6   7   8   9  10   2   1   2   3   4   5   6   7   8   9   1   0   1   2   3   4   5   6   7   8   2   1   2   3   4   5   6   7   8   9  
 6   5   4   5   6   7   8   9  10  11   5   4   3   4   5   6   7   8   9  10   4   3   2   3   4   5   6   7   8   9   3   2   1   2   3   4   5   6   7   8   2   1   0   1   2   3   4   5   6   7   3   2   1   2   3   4   5   6   7   8  
 7   6   5   4   5   6   7   8   9  10   6   5   4   3   4   5   6   7   8   9   5   4   3   2   3   4   5   6   7   8   4   3   2   1   2   3   4   5   6   7   3   2   1   0   1   2   3   4   5   6   4   3   2   1   2   3   4   5   6   7  
 8   7   6   5   4   5   6   7   8   9   7   6   5   4   3   4   5   6   7   8   6   5   4   3   2   3   4   5   6   7   5   4   3   2   1   2   3   4   5   6   4   3   2   1   0   1   2   3   4   5   5   4   3   2   1   2   3   4   5   6  
 9   8   7   6   5   4   5   6   7   8   8   7   6   5   4   3   4   5   6   7   7   6   5   4   3   2   3   4   5   6   6   5   4   3   2   1   2   3   4   5   5   4   3   2   1   0   1   2   3   4   6   5   4   3   2   1   2   3   4   5  
10   9   8   7   6   5   4   5   6   7   9   8   7   6   5   4   3   4   5   6   8   7   6   5   4   3   2   3   4   5   7   6   5   4   3   2   1   2   3   4   6   5   4   3   2   1   0   1   2   3   7   6   5   4   3   2   1   2   3   4  
11  10   9   8   7   6   5   4   5   6  10   9   8   7   6   5   4   3   4   5   9   8   7   6   5   4   3   2   3   4   8   7   6   5   4   3   2   1   2   3   7   6   5   4   3   2   1   0   1   2   8   7   6   5   4   3   2   1   2   3  
12  11  10   9   8   7   6   5   4   5  11  10   9   8   7   6   5   4   3   4  10   9   8   7   6   5   4   3   2   3   9   8   7   6   5   4   3   2   1   2   8   7   6   5   4   3   2   1   0   1   9   8   7   6   5   4   3   2   1   2  
13  12  11  10   9   8   7   6   5   4  12  11  10   9   8   7   6   5   4   3  11  10   9   8   7   6   5   4   3   2  10   9   8   7   6   5   4   3   2   1   9   8   7   6   5   4   3   2   1   0  10   9   8   7   6   5   4   3   2   1  
 5   6   7   8   9  10  11  12  13  14   4   5   6   7   8   9  10  11  12  13   3   4   5   6   7   8   9  10  11  12   2   3   4   5   6   7   8   9  10  11   1   2   3   4   5   6   7   8   9  10   0   1   2   3   4   5   6   7   8   9  
 6   5   6   7   8   9  10  11  12  13   5   4   5   6   7   8   9  10  11  12   4   3   4   5   6   7   8   9  10  11   3   2   3   4   5   6   7   8   9  10   2   1   2   3   4   5   6   7   8   9   1   0   1   2   3   4   5   6   7   8  
 7   6   5   6   7   8   9  10  11  12   6   5   4   5   6   7   8   9  10  11   5   4   3   4   5   6   7   8   9  10   4   3   2   3   4   5   6   7   8   9   3   2   1   2   3   4   5   6   7   8   2   1   0   1   2   3   4   5   6   7  
 8   7   6   5   6   7   8   9  10  11   7   6   5   4   5   6   7   8   9  10   6   5   4   3   4   5   6   7   8   9   5   4   3   2   3   4   5   6   7   8   4   3   2   1   2   3   4   5   6   7   3   2   1   0   1   2   3   4   5   6  
 9   8   7   6   5   6   7   8   9  10   8   7   6   5   4   5   6   7   8   9   7   6   5   4   3   4   5   6   7   8   6   5   4   3   2   3   4   5   6   7   5   4   3   2   1   2   3   4   5   6   4   3   2   1   0   1   2   3   4   5  
10   9   8   7   6   5   6   7   8   9   9   8   7   6   5   4   5   6   7   8   8   7   6   5   4   3   4   5   6   7   7   6   5   4   3   2   3   4   5   6   6   5   4   3   2   1   2   3   4   5   5   4   3   2   1   0   1   2   3   4  
11  10   9   8   7   6   5   6   7   8  10   9   8   7   6   5   4   5   6   7   9   8   7   6   5   4   3   4   5   6   8   7   6   5   4   3   2   3   4   5   7   6   5   4   3   2   1   2   3   4   6   5   4   3   2   1   0   1   2   3  
12  11  10   9   8   7   6   5   6   7  11  10   9   8   7   6   5   4   5   6  10   9   8   7   6   5   4   3   4   5   9   8   7   6   5   4   3   2   3   4   8   7   6   5   4   3   2   1   2   3   7   6   5   4   3   2   1   0   1   2  
13  12  11  10   9   8   7   6   5   6  12  11  10   9   8   7   6   5   4   5  11  10   9   8   7   6   5   4   3   4  10   9   8   7   6   5   4   3   2   3   9   8   7   6   5   4   3   2   1   2   8   7   6   5   4   3   2   1   0   1  
14  13  12  11  10   9   8   7   6   5  13  12  11  10   9   8   7   6   5   4  12  11  10   9   8   7   6   5   4   3  11  10   9   8   7   6   5   4   3   2  10   9   8   7   6   5   4   3   2   1   9   8   7   6   5   4   3   2   1   0  

 0   0  67   0   1   1   3  13   0  54   0  50  10   0   0   0   0   0   0  65   1  54   0   0   0   0   0  86   0   0   0   0   0   9   0   0   0   0   0   0  22   0   0   0   0   0   0   4   0   0   1   0   0   0  30   0   0   0   1   0  
 0   0   0   0   0  13   0   1   0   0   5   0   3   0  21   0   0   0   0  16   0   1   0   0   0   0   7   0  43   0   6   0   0   0   0   1   0   0   0   0   4   0   0  10   0   0  13   1   0   0   0   2   0  19  15  13   0  10  61   0  
 0  80   0   0   0   0   0   0   0   0  45   0  21   6   0   0   0   0  42   0  35  75   0   0   0   0  11  56  12  36  13   0   0  45   0   5   1   0   0   0   0   0   7  52  24   0   0   0   0   0   0   0  10  23   0   0   0  33   3  88  
 0   0   0   0  59   0   0  17  48   0  30   0   0   0  42   0   0   0  78  36  19  31   0  25   0   1  67   1  32   0   0   0   0   9   1   0   9  24   0   0   0  98   0   0  55   0   0   0   0   0  52  23   0   0   0   0   0   0  84   0  
 0   9   0  55   0   0   0   0   0  51   0  12   0   0   0   0   0   0   0  79   0   0   0  48  59   9   0  15   0   0   0  37   0   0   0   3   1   0   0   6   0   0   0   4  86  61   0   0   0   0   2   0   0  12   0   0   0   0   0  54  
65   0   0   0   0   0  41   0   0   0   0   0   0   0   0   0   0   0   0   0   0  51   0   0   0   0   0   0  38  74   1   0   0   0  74  11   0  79  54  79   0   0   0   0  23   0   0  93  61  82   0   0   0   0   0   0   0   0   1   0  
 0   0   0   0   0   0   0   0  58  32   8   0   7   0  72   0  22   0   0   0   0   0   0  87   0   0   0   0   2  81   0   0   0  73   0   0  15   0   0  19  62   0   0   0   0   0   0   0  52  81  17  88   5   0  19   1   0   0  12   1  
 0   1   0  42   0  94   0   0   0   0   3   0  23   0   0   0  65   0   0   0  28   0   0   3   0  44   0  92   0   0   0   1  78  78   0   0   0   0   0   7  58   0   5   0   6   0   0  23  43   0  32   3   0   7   0   1  86  70   0  16  
 0  44   0   0   0   0   0   0   0   0  31   0   0  36   0   0   0   0   0   0  11   0   0   0   0   1   0   0   0   0   0   0   0  44  54   0   0   8   0   0   0   0   0  35   0   0   0   3   0   0   0   1  82   0   0   0  49  37   0   0  
 0   0   0   0   4   0   0   0   0   0   0   1   0  23   0   0   0  19   8  46  13   0   0   3   0   0   0   1   0   0   0   0   0  70   0   0   0   0   1   0   0   2  31   0   0   0   0   0   0   0   4   0   0   0   0   0   0   0   0   0  
 0  66   0   0   0   0   0   0   0   0   0  31   0   0   1   0   0   0   0   0   1  89  36   0   0  85   0   0  83   0   0   0   0  52   0   0   0   0   0   0   0  18   0   0  35  10  74  21   0   0   0   0  20   0   0  97   0   0  67   0  
 0  26  59   0   0   0   0   0   0   1  18   0   0   0   0   2   0   0   0  30   0   8   0   0  39   0  49   3   0   0   0   0  46   0   0   4  26  96  88   0   0   1   0   0   0   0  30   0  22   0   1   0   0   0  24   0   0   0   8   0  
63  86  37   0   0   0  60  47   0   0   0   0   0   0   1   0   0  95   0   0  74   0   0  75  18  21   1  27   0   0  62  25   0   0   0   0   3  22  30   0   0   0   1   0  45   0   0   0  84  18   0   0   0   0   0   0   0   4  89   0  
 0   0   0   0   0   0   0   0  40   0   0  16   0   0   5   0  37  28   0  77   1  63   0   0  82   0   0   0   0   0   5  94   5   0   0  43   5   0   0   0   0  22   0   0   0   0  51   0   0   0   0   0   0   0   0   0  50   0   0  81  
 0   0   0   0   0   0   0   0   0   0   0   0  68   0   0   0   0   0   0   0   0  19  12  73  44   0   0  54  60  69  48   0   0  14   4   0  58  13   0   0  15  79  28   0   0   0   0   0   0   0  65   0   0   0   0   0  26   0  45   0  
 0   0   0   0   0   0   0  14   0  89   8   0   0   0   0   0   0   0   0   3   0   0  52   0  72  50   0   0   0   0   0   0   5   0   0   0  29   0  26   0   0   0  15   3   0   0   0   0   0   0   0   0   0   2   0   0   0  98   0  13  
 0   0  96   0   0   1   0   0   1   0   0   0   0   0   0   0   0   4   0   0   0  80   0   0   0  55   8   0  15  88   0   0   0   0   0  38   0   0   0   0   0   0   0  72  98   0   0  29   1  23   0  93   3   0   0   0   0   0   0   0  
 0   0  41   0   0   0  19   0   0  23   0   0   0  37  53   0   0   0  70  67   3   1   0   0   0   0   0   0  27   2   0   0   1   0   1   0   0   0   0   0   0   0   0   0   0   4   0  47  46   0   0   0   0  31   0   0   0   0   0   6  
 0  88   0   0  76  22   0   1   0   0   0   5   0   0   0  27  46   0   0   0   0   0   0   0  73   0   0   1  35   0  32  99   0   1   0   0   0   0   9   0   0   0   0   0   0   6  14   0   0   0   0   0   8   0   0   0   0   0   0  15  
 0   0   0   0   0  49   0   0   0   1   0   0   1   2   0   0   0   0   0   0   0  46  41   0  44   0   0   5   0  98   1   0   0   0   0   0  11   0   0   0   0   0   0   0  20   0   0   0  96  99   0   1   3   0  79   0   0   0   0   0  
 0   0   0   0   5   0   0   0   0   0   0   0  46   0   0   0   0   0  42   0   0   0   0   0   0   0  46  62   0   0   0   0   0   0   0  82   0   0   0   0   0  29   0   0   2   9   0  10   7   0   0   0   0   0   0  69   0   0   7   3  
 5   0   0   0   0   0  48   0   0   0   0   3   1   0   0   0   0  18   0   0   0   0   0  37   0   0   0   0  14   1   0   0   5   0   0   6  40   0   1   0   1   1   0   0  14   0   0   0   0   0   0  79   0   0   0  43   0  33  72  25  
 0   0   0   0   0  67  60  46  81   0   0  35  75   0   0   0  53  69   0   0  45  16   0   0   0   0   0   0   0   0  24   0   0   0   0   0  75   0   0   1   0   0   0   0   0  45   0   0   5   0   0  16   0   0   0   0  46  19   7   0  
 5   0   0  10   0  98   0   0   0   0   0   0  66   0   0   0   0  74   0   6   0   0   0   0  14  34   0  97  65   0   0  16   0   0   0   0   0  53   1   0   0   0   0   0   0   0  12   0  42   0  19   0   1   4   0   0   0   1   0   0  
 0   0   0   0   0  34   0   0  41   0   0   0   0  51   0   0  17  80   0   0   0   0   0   0   0  77   0   0  40   0  55   0   0   0   0   0  64  44   0   0   0   0   0   0   0  61  59   1   0  97   0   1   0   0   0   0   0   0  40   0  
 0   0   0   0   1  22  22   3   0  58   0   0   0  25   0   0   0  79   0   0  22   0   0  19   0   0   0   0   0  63   0   0   0   0   0   0   0   0   0   0   0   3   0   0   9   0   0   0   0   0   0   0   9   0   2   0   0  65  34   0  
 0   0   0   0   0   0   0   0   0  75   0  12  72   1   0  23  28   0   0  40   0  29   0   0  19  18   0  90   0   0   0  23   0  28   0  42   0   3   0   0   0  42   0   0   0   0   0  97   0  76   1   0   0   0   0   0  23   0  16   0  
 1   0   0  18   0   0  12   0   4   0   0  67   0   0   0   0   1   0   0  74   0   0  13   0   0   4   0   0  62  56  10   0   0   0  79   2   0   0  42   0   0   0   0   1   0  46   0   0  34   0  19   0   0   0   0   0   0   0   0   0  
 0   3   0   0   1   0  26  76   4   0   0   0   0   0   0   0   0   0   0   0  57   7   0  24   1   0  10   0   0   6  93   0   0   0   0   0   0   0   0   8   0   0  43   0   0   0   0   0  17   0   0   0   0   0   0   5   0   0   0  14  
 0   0   0   0   0   0   0   0   0   0  10   0   0   0   0  35   0   0   0   0  50   0   0   0   0   0   0  67   0   0   0   0   0  82   0   1   0  73   0   0   0   1   0   0   3   0   0   0  55   0   0   0   0   0  90   0   0   0   3   0  
19   0   0   0   0   0   0   0  11   8   0   0   0  57   0   0  26   0   0   0   0   0   0   0  28   0   2   0   0   0   0   0  52   0   0   0   0  96   0   0   0   0   0  31   0   0   0   0  96   0   0   1  56   0   0   0   1  56   0   0  
 0   0   0   0   0  80   0   0   0  56   0   0   0  62   0   4   0   0   0   0   0  21   0  97   0   0   0   0  90   0   1   0   0   0   0  28  30   0   0   0   0   0   0  33   0   0   0   0  68   0  29   0   0   0   0   0   0   0   0   4  
 3  83   0   0   0  30   1   0   0   0   0  91   0   0   0   0   0   0   0   0   0   0   0   0  26  20   0   0  24  17   0   0   0   0   0   0  39   1  93   0   1   0   0   0   0   0   0  69   0   0   0   0   0   0  88   1   9   0   0  51  
75  70   0   0   0   0   0  30   1  97   9   0   1   0   0   0  38   0   0   0   0  67   0   0   2   0   0   0   0   0  58   0   0   0   0   0   0  71   0   1   0   0   0   0   0   0   0   0   0   0   0   0   0   0   0   0   0   1   0   0  
 0   0   6   0   2   0   0   0   0   0   0   0  13   0   0   0  82   0   0   0   0   0   0  14   2   0   0   0   0   0   3   0   1   0   0   0   0   0   0  22   0   0   1   0   0   5  33   0   0  30   7  67  35   0   0   0   1   9   0   0  
 0   0   0   0  16   0   0   0   0  40   0  54  19   0   0   0   0  23   0  59   0   0   0   0  59   0   0   1   0   0  11   0   1   0   0   0   0   0   0   0   0   0   0  30   0   0   0   0  19   0   0   0   6  19   2   0   0   0   0   0  
 0   0   0   0   0   0   0   0  24   0   0   0   0   0   0   0   0   0   0   0  15   0  26   0   0   0   0   0   0  64   0  15   0  55   4   0   0  72   0   0   0   0   0   0   0   0   0   0   0  93   0  94  34   0  20   0   1   0   0   0  
 0   0   1   0   8   0   0   0   0  62   0   0   0  61   0   0   1   0   0   0  57   0   0   0   0   0   0  88   0  29  52   0   0   0   0   0   0   0   5  13   0   0   0  87   0   0   0   0   0   0   0   0   7  67   2   0   0  63  71   0  
 0   0   0   0   0   1   0  21   0   0   0   0   0   0  39   0   0  58   0   0   0   0  56   0   0   7  80  75   0   0   5   0   1   0   0  64  37   0   0   0   0   0  24   0   0   0   0  29   0   0   0   0  38   0   0   0  71  42   0  91  
 0   0   0   0   0   0   0   1   0   0   0   0  82  21   8   0  79   0   0   0   0   0  40   0   0  79   1   0   0   0   0  35   0   0   0   0   0   0   0   0   0   0   0   0  14   0   0   0   0  28   0   0   0   1  12   0   0   0   0   0  
 0   0   0  98   0   0  28   0   0   0   0   0  24   0   7   0   0   1   0   0  82  27   0   0   0   0  81  40   0   0   0   0   0   6   0   0   0   0   0  21   0  43   0   0  32   0   0   0   0   0   0   0   0   0   0   0   0   8   1  56  
 0   0   0   0   0   1   1   0   0   0  18   0   0   0   0  83  31   0  78   0   0   0   0  37  62  22   0   0   0   0   0   0  30  98   3  11  13  76  62   0   0   0  17   0   0  52  11   0   0   0  50  46   0   0   0  13   1   0   0   0  
 0  34   1   0   1   0   0   0   0   0   0   0  12   0  50  22   0  39  99  29  26  47   0   0   0  70  30   6   0   0  63  26  11   0  98   0  37  30  10  94   0  33   0   0  54   0   0  10  62   0   9   0  95  32   0   0   0   0   4   0  
 0   1  46   0   0   0   0   0   0   1   0   0   0   0   0  37   0  54   0   2   0   0   0  51   0   0   0  86  16   0   1  35  55   0   0   6   0   0  86   0   0   0   0   0   0  95   0  26   0   0   0   7  50  36   0   0  86   0   0  42  
 0   0   0   0  10   0   0   0   0   0  64   0   1   0   0   0   0   1   0   0   1  13   0  31  92   0   0   0   0   0  14   8   0  63  73   0   0  84   0   0   0   0   0   0   0   6  71   0  56   0   0   6   2  62   0   0   0   6   0   0  
 0   0   0  16   0   6  67   0  88  34   0  37   0   0   1   0   0   0   0   0   0   0   0  13   0   0   0   0   0   3   0  91   0   0   0   0   0   0   0   0  57   1   0   0   0   0   0   0   0  32   0   0   0   0   0   0   3  56   0   0  
23   0   0   0   0   0   0  20   0   0   0   0   0   0   0   0   0   0   0   3   0   0   0   0   0  26  89  88   2  43   0   0  25  15   0  14   0   0   1   0   0   0   0   0  41   1   0   0  77   0   0  76   0   0   0   0   0   0   0   0  
39   1   0  60   2   0   0   0   0   0   0   0  38   0   0   0   0   0   0   0   0   0  75   0   0   0   0   0  99   0   0   0   0   0   0   0  27   0   0   0   0   0   0   0   0   0   0   0  31   0   0  40   0   0   0   0  74   0  92   0  
 0   4  24  61   6  85   0   1   0  28  60  76   0   0   0   0  59   6   0   1   0   1   0   0   0  46   0   0   0   0  56   0   0   1   2   1   0   0   0   0  29   6   0   0  79   0   0   1   0   0   0   0   0   0  51   0   0   0   0   0  
 0  42   0   0   3  49   0   0   0   0  17   0   0   0   0   0  51   0  26   9   0   0  81   0   0  19   0   0   0   0  10   0  61  50  96   0   0   5   0  82   0   0   0  68  10   0   0   5   0   0   0   0   0   0   0   0  77   0  19   0  
 0  78   0   0   0   0   0  14   0  88   0   0   0   0   0   0   0   0   0   1   0   0   0   0   0   0   0   0  74   0   0  51   0  47  58   0   0   0   0   0  53   0   0  37   0   6   0   0   0   0   0   0   0   0  31   0   0  39   0  98  
 0   0  10   7   0   0   8   6   0   0   0   0   0  55   0   0  25   0   0   0   0   0   0   0  29   0   0   1   0   0  89   2  49   0   0  27   0  92   3   0  93   0  43   0   0   0   0   0   0  15   1   0   0   8   2   1   7   9   0   0  
 0   0   0   0   6   0   0   0   0  14   0   0   0   0   0   0   0   0   2  21   0   0  41   0   0   0   0   0   0   0   0  14   0   0   0   0  40  22   9   0   0   0  14   9  45   0   0   0   9   0   0  54   0   6   0   0   0  64   0  72  
 0  15   0   0   0   0  66   2   0   0  74   0  54   0   0   0   0  91   0   0   0   0   0   0  91  19   0   0   0  42  43  20   0   0   0   0   0   0   1  86  98  25   1   0   0  13   0   8   0   1   0   0   0   0   0  24  97   0   0   0  
 0   0   0   0   4   0   0  35   0  88   0   0   0   0   0  36   0  72   0  78   0  33   0   0  95   0   0   0  68   0   0   0   0   0   0   0   1   0   0   0   0   0  39  84   0   0   0   0  77  50   0   0  30   0   0   0   0   0   0   0  
14  23   0   0   0   0   0  69   0   0  52  78   0   0   0   0   0   0   0  98   0   0   0   0   0  61  38   5   0   0  27   0  36   0  11   0   0   0   0   0   0   0   0   6   0  33   0   0  15   0   0   0   0   6   0   0   0   0   0  83  
 0   0  24   0   1   0   0   0  25   0   0   0  77   0   0   0   0   0   0   0  12   8   0   0   1   0   0   0   0   0   0   0  28   2   0   0  80   0   0   0   0   0   0   0   0   0   0   0   0   0   0   0   0   0   4  54   0   0   3   0  
 0  58   0  13   0  28   0   0   0  16   0   0   0   0   0  15   0  15   0   0  78   0   0   0   0   0  29   9   0   0   0   0   0  13   0   0   0   7   0   0   0   0   9  11   0   0  91   0   0   0   0  19   0   0   0   0   0   0   0   0  
 0  19   0   0   0   0   1   0   0   0   0  57  68   0   0   0  78   0   0   4   0   0   0   0   0   0   0  14   1   3   0  63   3   0   0   0  29   0   0   0   0   0   0  43   0  13   0   0  18   0  35   0   0   0   0   0   1   0   0  13  
 0   0   0   0  59   0   0   0   4  43   0  24   0   0   0  21  26   0   0  30   1   0   0   0   0   0   1  54   0   0  99   0   0   6  73   0   1   0  35   0   3   0   2   0  13  89   0   0  47   0   0   0   0   0   0  56  78   0   0   0  
